NAME : n60w160.004.573.tour
COMMENT : Length = 573
COMMENT : Found by LKH [Keld Helsgaun] Tue May  2 05:47:34 2017
TYPE : TOUR
DIMENSION : 61
TOUR_SECTION
1
50
24
46
42
28
3
32
35
13
37
7
6
55
38
12
15
51
2
20
19
57
54
34
14
27
5
43
25
33
59
53
44
4
9
41
48
52
45
16
23
49
18
22
30
21
8
26
56
47
58
10
40
36
11
31
39
17
61
60
29
-1
EOF
